
Gurobi 11.0.1 (win64) logging started Tue May 14 18:34:51 2024

Set parameter LogFile to value "output/solver_log5.txt"
Gurobi Optimizer version 11.0.1 build v11.0.1rc0 (win64 - Windows 11.0 (22631.2))

CPU model: 11th Gen Intel(R) Core(TM) i7-1165G7 @ 2.80GHz, instruction set [SSE2|AVX|AVX2|AVX512]
Thread count: 4 physical cores, 8 logical processors, using up to 8 threads

Optimize a model with 1128 rows, 271 columns and 20916 nonzeros
Model fingerprint: 0x13679224
Variable types: 88 continuous, 183 integer (183 binary)
Coefficient statistics:
  Matrix range     [4e-01, 1e+05]
  Objective range  [1e+00, 1e+02]
  Bounds range     [1e+00, 1e+00]
  RHS range        [1e-02, 1e+05]

User MIP start produced solution with objective 57233.7 (0.00s)
User MIP start produced solution with objective 57233.7 (0.00s)
Loaded user MIP start with objective 57233.7

Presolve removed 104 rows and 108 columns
Presolve time: 0.02s
Presolved: 1024 rows, 163 columns, 20075 nonzeros
Variable types: 81 continuous, 82 integer (80 binary)

Root relaxation: cutoff, 4 iterations, 0.00 seconds (0.01 work units)

    Nodes    |    Current Node    |     Objective Bounds      |     Work
 Expl Unexpl |  Obj  Depth IntInf | Incumbent    BestBd   Gap | It/Node Time

     0     0     cutoff    0      57233.6924 57233.6924  0.00%     -    0s

Explored 1 nodes (4 simplex iterations) in 0.05 seconds (0.08 work units)
Thread count was 8 (of 8 available processors)

Solution count 2: 57233.7 57233.7 

Optimal solution found (tolerance 1.00e-04)
Best objective 5.723369238994e+04, best bound 5.723369238994e+04, gap 0.0000%
